7166.0
[[ 6.  2.  3. 10.  8.  0. 12.  9.  7.  1. 11.  4.  5.]
 [ 6.  2.  3. 10.  8.  0. 12.  9.  7.  1. 11.  4.  5.]
 [ 6.  2.  3. 10.  8.  0. 12.  9.  7.  1. 11.  4.  5.]
 [ 6.  2.  3. 10.  8.  0. 12.  9.  7.  1. 11.  4.  5.]]
